NAME : straight_line_constant_20_1_1_1.tsp
COMMENT : straight_line_constant_20_1_1_1.tsp
TYPE : TSP
DIMENSION : 20
EDGE_WEIGHT_TYPE : EUC_2D
NODE_COORD_SECTION
1 100.000000 100.000000
2 101.000000 101.000000
3 102.000000 102.000000
4 103.000000 103.000000
5 104.000000 104.000000
6 105.000000 105.000000
7 106.000000 106.000000
8 107.000000 107.000000
9 108.000000 108.000000
10 109.000000 109.000000
11 110.000000 110.000000
12 111.000000 111.000000
13 112.000000 112.000000
14 113.000000 113.000000
15 114.000000 114.000000
16 115.000000 115.000000
17 116.000000 116.000000
18 117.000000 117.000000
19 118.000000 118.000000
20 119.000000 119.000000
EOF